75
[7,8,9,10,11,12,13,14,15,16,17,18,19,20,21,22,23,24,25,26,27,28,29,30,31,32,33,34,35,36,37,38,39,40,41,42,43,44,45,46,47,48,49,50,51,52]
[12,10,13,6,12,15,12,9,1,8,15,8,12,6,13,12,7,5,12,10,17,8,4,11,5,16,9,12,15,14,8,12,12,15,10,14,8,15,12,13,9,10,11,19,8,15]
